n = 12;
m = 5;

opiniones_iniciales = [2, 3, 4, 1, 2];

valores_opiniones = [0.2, 0.4, 0.75, 0.85, 0.95];

costos_extras = [7.12, 10.345, 5.415, 4.9, 2.305];

costos_desplazamiento = [|
    0.0, 2.175, 3.04, 4.21, 5.125
    | 1.98, 0.0, 1.675, 4.3, 2.61
    | 3.115, 2.62, 0.0, 5.01, 3.72
    | 2.52, 1.415, 3.62, 0.0, 4.8
    | 3.91, 2.0, 1.4, 3.11, 0.0 |];

ct = 40.0;

maxMovs = 15;
